<?xml version = "1.0" encoding="UTF-8" standalone="yes"?>
<CPLEXSolution version="1.2">
 <header
   problemName="IloCplex"
   solutionName="p0"
   solutionIndex="-1"
   objectiveValue="3282358"
   solutionTypeValue="3"
   solutionTypeString="primal"
   solutionStatusValue="127"
   solutionStatusString="integer feasible solution"
   solutionMethodString="mip"
   primalFeasible="0"
   dualFeasible="0"
   writeLevel="3"/>
 <quality
   epInt="1.0000000000000001e-05"
   epRHS="9.9999999999999995e-07"
   maxIntInfeas="0"
   maxPrimalInfeas="0"
   maxX="1"
   maxSlack="1"/>
 <variables>
  <variable name="w4_1" index="53" value="1"/>
  <variable name="w4_6" index="58" value="1"/>
  <variable name="w4_10" index="62" value="1"/>
  <variable name="w5_1" index="66" value="1"/>
  <variable name="w5_6" index="71" value="1"/>
  <variable name="w5_10" index="75" value="1"/>
  <variable name="w6_1" index="79" value="1"/>
  <variable name="w6_6" index="84" value="1"/>
  <variable name="w6_10" index="88" value="1"/>
  <variable name="w8_1" index="105" value="1"/>
  <variable name="w8_6" index="110" value="1"/>
  <variable name="w8_10" index="114" value="1"/>
  <variable name="w9_1" index="118" value="1"/>
  <variable name="w9_6" index="123" value="1"/>
  <variable name="w9_10" index="127" value="1"/>
  <variable name="w10_1" index="131" value="1"/>
  <variable name="w10_6" index="136" value="1"/>
  <variable name="w10_10" index="140" value="1"/>
  <variable name="w12_1" index="157" value="1"/>
  <variable name="w12_6" index="162" value="1"/>
  <variable name="w12_10" index="166" value="1"/>
  <variable name="x0_88" index="257" value="1"/>
  <variable name="x1_165" index="934" value="1"/>
  <variable name="x2_163" index="1532" value="1"/>
  <variable name="x3_457" index="2426" value="1"/>
  <variable name="x4_12" index="2581" value="1"/>
  <variable name="x5_590" index="3759" value="1"/>
  <variable name="x6_33" index="3802" value="1"/>
  <variable name="x7_461" index="4830" value="1"/>
  <variable name="x8_170" index="5139" value="1"/>
  <variable name="x9_66" index="5635" value="1"/>
  <variable name="x10_334" index="6503" value="1"/>
  <variable name="x11_445" index="7214" value="1"/>
  <variable name="x12_46" index="7415" value="1"/>
  <variable name="x13_248" index="8217" value="1"/>
  <variable name="x14_339" index="8908" value="1"/>
  <variable name="x15_346" index="9515" value="1"/>
  <variable name="x16_483" index="10252" value="1"/>
  <variable name="x17_526" index="10895" value="1"/>
  <variable name="x18_417" index="11386" value="1"/>
  <variable name="x19_435" index="12004" value="1"/>
  <variable name="x20_496" index="12665" value="1"/>
  <variable name="x21_410" index="13179" value="1"/>
  <variable name="x22_249" index="13618" value="1"/>
  <variable name="x23_5" index="13974" value="1"/>
  <variable name="x24_268" index="14837" value="1"/>
  <variable name="x25_204" index="15373" value="1"/>
  <variable name="x26_11" index="15780" value="1"/>
  <variable name="x27_283" index="16652" value="1"/>
  <variable name="x28_226" index="17195" value="1"/>
  <variable name="x29_548" index="18117" value="1"/>
  <variable name="x30_297" index="18466" value="1"/>
  <variable name="x31_136" index="18905" value="1"/>
  <variable name="x32_357" index="19726" value="1"/>
  <variable name="x33_374" index="20343" value="1"/>
  <variable name="x34_26" index="20595" value="1"/>
  <variable name="x35_67" index="21236" value="1"/>
  <variable name="x36_231" index="22000" value="1"/>
  <variable name="x37_192" index="22561" value="1"/>
  <variable name="x38_81" index="23050" value="1"/>
  <variable name="x39_43" index="23612" value="1"/>
  <variable name="x40_429" index="24598" value="1"/>
  <variable name="x41_166" index="24935" value="1"/>
  <variable name="x42_444" index="25813" value="1"/>
  <variable name="x43_80" index="26049" value="1"/>
  <variable name="x44_97" index="26666" value="1"/>
  <variable name="x45_179" index="27348" value="1"/>
  <variable name="x46_101" index="27870" value="1"/>
  <variable name="x47_453" index="28822" value="1"/>
  <variable name="x48_480" index="29449" value="1"/>
  <variable name="x49_99" index="29668" value="1"/>
  <variable name="x50_337" index="30506" value="1"/>
  <variable name="x51_577" index="31346" value="1"/>
  <variable name="x52_87" index="31456" value="1"/>
  <variable name="x53_20" index="31989" value="1"/>
  <variable name="x54_356" index="32925" value="1"/>
  <variable name="x55_227" index="33396" value="1"/>
  <variable name="x56_465" index="34234" value="1"/>
  <variable name="x57_397" index="34766" value="1"/>
  <variable name="x58_113" index="35082" value="1"/>
  <variable name="x59_274" index="35843" value="1"/>
  <variable name="x60_427" index="36596" value="1"/>
  <variable name="x61_263" index="37032" value="1"/>
  <variable name="x62_275" index="37644" value="1"/>
  <variable name="x63_239" index="38208" value="1"/>
  <variable name="x64_78" index="38647" value="1"/>
  <variable name="x65_209" index="39378" value="1"/>
  <variable name="x66_586" index="40355" value="1"/>
  <variable name="x67_347" index="40716" value="1"/>
  <variable name="x68_162" index="41131" value="1"/>
  <variable name="x69_484" index="42053" value="1"/>
  <variable name="x70_323" index="42492" value="1"/>
  <variable name="x71_434" index="43203" value="1"/>
  <variable name="x72_270" index="43639" value="1"/>
  <variable name="x73_517" index="44486" value="1"/>
  <variable name="x74_62" index="44631" value="1"/>
  <variable name="x75_276" index="45445" value="1"/>
  <variable name="x76_383" index="46152" value="1"/>
  <variable name="x77_366" index="46735" value="1"/>
  <variable name="x78_261" index="47230" value="1"/>
  <variable name="x79_205" index="47774" value="1"/>
  <variable name="x80_167" index="48336" value="1"/>
  <variable name="x81_330" index="49099" value="1"/>
  <variable name="x82_395" index="49764" value="1"/>
  <variable name="x83_98" index="50067" value="1"/>
  <variable name="x84_412" index="50981" value="1"/>
  <variable name="x85_404" index="51573" value="1"/>
  <variable name="x86_210" index="51979" value="1"/>
  <variable name="x87_70" index="52439" value="1"/>
  <variable name="x88_567" index="53536" value="1"/>
  <variable name="x89_335" index="53904" value="1"/>
  <variable name="x90_42" index="54211" value="1"/>
  <variable name="x91_30" index="54799" value="1"/>
  <variable name="x92_281" index="55650" value="1"/>
  <variable name="x93_550" index="56519" value="1"/>
  <variable name="x94_217" index="56786" value="1"/>
  <variable name="x95_236" index="57405" value="1"/>
  <variable name="x96_135" index="57904" value="1"/>
  <variable name="x97_3" index="58372" value="1"/>
  <variable name="x98_194" index="59163" value="1"/>
  <variable name="x99_576" index="60145" value="1"/>
  <variable name="x100_73" index="60242" value="1"/>
  <variable name="x101_182" index="60951" value="1"/>
  <variable name="x102_324" index="61693" value="1"/>
  <variable name="x103_82" index="62051" value="1"/>
  <variable name="x104_592" index="63161" value="1"/>
  <variable name="x105_111" index="63280" value="1"/>
  <variable name="x106_333" index="64102" value="1"/>
  <variable name="x107_436" index="64805" value="1"/>
  <variable name="x108_109" index="65078" value="1"/>
  <variable name="x109_295" index="65864" value="1"/>
  <variable name="x110_72" index="66241" value="1"/>
  <variable name="x111_367" index="67136" value="1"/>
  <variable name="x112_398" index="67767" value="1"/>
  <variable name="x113_53" index="68022" value="1"/>
  <variable name="x114_463" index="69032" value="1"/>
  <variable name="x115_391" index="69560" value="1"/>
  <variable name="x116_298" index="70067" value="1"/>
  <variable name="x117_228" index="70597" value="1"/>
  <variable name="x118_246" index="71215" value="1"/>
  <variable name="x119_262" index="71831" value="1"/>
  <variable name="x120_301" index="72470" value="1"/>
  <variable name="x121_442" index="73211" value="1"/>
  <variable name="x122_571" index="73940" value="1"/>
  <variable name="x123_193" index="74162" value="1"/>
  <variable name="x124_178" index="74747" value="1"/>
  <variable name="x125_269" index="75438" value="1"/>
  <variable name="x126_154" index="75923" value="1"/>
  <variable name="x127_27" index="76396" value="1"/>
  <variable name="x128_528" index="77497" value="1"/>
  <variable name="x129_582" index="78151" value="1"/>
  <variable name="x130_375" index="78544" value="1"/>
  <variable name="x131_317" index="79086" value="1"/>
  <variable name="x132_473" index="79842" value="1"/>
  <variable name="x133_256" index="80225" value="1"/>
  <variable name="x134_196" index="80765" value="1"/>
  <variable name="x135_119" index="81288" value="1"/>
  <variable name="x136_75" index="81844" value="1"/>
  <variable name="x137_85" index="82454" value="1"/>
  <variable name="x138_500" index="83469" value="1"/>
  <variable name="x139_331" index="83900" value="1"/>
  <variable name="x140_464" index="84633" value="1"/>
  <variable name="x141_394" index="85163" value="1"/>
  <variable name="x142_538" index="85907" value="1"/>
  <variable name="x143_418" index="86387" value="1"/>
  <variable name="x144_292" index="86861" value="1"/>
  <variable name="x145_481" index="87650" value="1"/>
  <variable name="x146_430" index="88199" value="1"/>
  <variable name="x147_141" index="88510" value="1"/>
  <variable name="x148_309" index="89278" value="1"/>
  <variable name="x149_498" index="90067" value="1"/>
  <variable name="x150_240" index="90409" value="1"/>
  <variable name="x151_307" index="91076" value="1"/>
  <variable name="x152_443" index="91812" value="1"/>
  <variable name="x153_402" index="92371" value="1"/>
  <variable name="x154_497" index="93066" value="1"/>
  <variable name="x155_279" index="93448" value="1"/>
  <variable name="x156_151" index="93920" value="1"/>
  <variable name="x157_130" index="94499" value="1"/>
  <variable name="x158_349" index="95318" value="1"/>
  <variable name="x159_597" index="96166" value="1"/>
  <variable name="x160_172" index="96341" value="1"/>
  <variable name="x161_308" index="97077" value="1"/>
  <variable name="x162_247" index="97616" value="1"/>
  <variable name="x163_186" index="98155" value="1"/>
  <variable name="x164_4" index="98573" value="1"/>
  <variable name="x165_288" index="99457" value="1"/>
  <variable name="x166_411" index="100180" value="1"/>
  <variable name="x167_386" index="100755" value="1"/>
  <variable name="x168_424" index="101393" value="1"/>
  <variable name="x169_160" index="101729" value="1"/>
  <variable name="x170_282" index="102451" value="1"/>
  <variable name="x171_188" index="102957" value="1"/>
  <variable name="x172_57" index="103426" value="1"/>
  <variable name="x173_432" index="104401" value="1"/>
  <variable name="x174_161" index="104730" value="1"/>
  <variable name="x175_501" index="105670" value="1"/>
  <variable name="x176_527" index="106296" value="1"/>
  <variable name="x177_16" index="106385" value="1"/>
  <variable name="x178_362" index="107331" value="1"/>
  <variable name="x179_421" index="107990" value="1"/>
  <variable name="x180_230" index="108399" value="1"/>
  <variable name="x181_68" index="108837" value="1"/>
  <variable name="x182_456" index="109825" value="1"/>
  <variable name="x183_28" index="109997" value="1"/>
  <variable name="x184_251" index="110820" value="1"/>
  <variable name="x185_225" index="111394" value="1"/>
  <variable name="x186_566" index="112335" value="1"/>
  <variable name="x187_259" index="112628" value="1"/>
  <variable name="x188_19" index="112988" value="1"/>
  <variable name="x189_241" index="113810" value="1"/>
  <variable name="x190_296" index="114465" value="1"/>
  <variable name="x191_389" index="115158" value="1"/>
  <variable name="x192_173" index="115542" value="1"/>
  <variable name="x193_120" index="116089" value="1"/>
  <variable name="x194_392" index="116961" value="1"/>
  <variable name="x195_384" index="117553" value="1"/>
  <variable name="x196_222" index="117991" value="1"/>
  <variable name="x197_569" index="118938" value="1"/>
  <variable name="x198_564" index="119533" value="1"/>
  <variable name="x199_198" index="119767" value="1"/>
  <variable name="x200_476" index="120645" value="1"/>
  <variable name="x201_524" index="121293" value="1"/>
  <variable name="x202_152" index="121521" value="1"/>
  <variable name="x203_542" index="122511" value="1"/>
  <variable name="x204_185" index="122754" value="1"/>
  <variable name="x205_143" index="123312" value="1"/>
  <variable name="x206_382" index="124151" value="1"/>
  <variable name="x207_25" index="124394" value="1"/>
  <variable name="x208_169" index="125138" value="1"/>
  <variable name="x209_361" index="125930" value="1"/>
  <variable name="x210_250" index="126419" value="1"/>
  <variable name="x211_207" index="126976" value="1"/>
  <variable name="x212_305" index="127674" value="1"/>
  <variable name="x213_49" index="128018" value="1"/>
  <variable name="x214_13" index="128582" value="1"/>
  <variable name="x215_425" index="129594" value="1"/>
  <variable name="x216_396" index="130165" value="1"/>
  <variable name="x217_487" index="130856" value="1"/>
  <variable name="x218_273" index="131242" value="1"/>
  <variable name="x219_578" index="132147" value="1"/>
  <variable name="x220_144" index="132313" value="1"/>
  <variable name="x221_477" index="133246" value="1"/>
  <variable name="x222_354" index="133723" value="1"/>
  <variable name="x223_326" index="134295" value="1"/>
  <variable name="x224_14" index="134583" value="1"/>
  <variable name="x225_129" index="135298" value="1"/>
  <variable name="x226_551" index="136320" value="1"/>
  <variable name="x227_229" index="136598" value="1"/>
  <variable name="x228_76" index="137045" value="1"/>
  <variable name="x229_218" index="137787" value="1"/>
  <variable name="x230_372" index="138541" value="1"/>
  <variable name="x231_174" index="138943" value="1"/>
  <variable name="x232_36" index="139405" value="1"/>
  <variable name="x233_536" index="140505" value="1"/>
  <variable name="x234_415" index="140984" value="1"/>
  <variable name="x235_9" index="141178" value="1"/>
  <variable name="x236_315" index="142084" value="1"/>
  <variable name="x237_583" index="142952" value="1"/>
  <variable name="x238_355" index="143324" value="1"/>
  <variable name="x239_202" index="143771" value="1"/>
  <variable name="x240_93" index="144262" value="1"/>
  <variable name="x241_570" index="145339" value="1"/>
  <variable name="x242_176" index="145545" value="1"/>
  <variable name="x243_285" index="146254" value="1"/>
  <variable name="x244_414" index="146983" value="1"/>
  <variable name="x245_513" index="147682" value="1"/>
  <variable name="x246_518" index="148287" value="1"/>
  <variable name="x247_252" index="148621" value="1"/>
  <variable name="x248_112" index="149081" value="1"/>
  <variable name="x249_83" index="149652" value="1"/>
  <variable name="x250_370" index="150539" value="1"/>
  <variable name="x251_61" index="150830" value="1"/>
  <variable name="x252_242" index="151611" value="1"/>
  <variable name="x253_294" index="152263" value="1"/>
  <variable name="x254_306" index="152875" value="1"/>
  <variable name="x255_336" index="153505" value="1"/>
  <variable name="x256_100" index="153869" value="1"/>
  <variable name="x257_291" index="154660" value="1"/>
  <variable name="x258_90" index="155059" value="1"/>
  <variable name="x259_264" index="155833" value="1"/>
  <variable name="x260_266" index="156435" value="1"/>
  <variable name="x261_544" index="157313" value="1"/>
  <variable name="x262_364" index="157733" value="1"/>
  <variable name="x263_47" index="158016" value="1"/>
  <variable name="x264_495" index="159064" value="1"/>
  <variable name="x265_71" index="159240" value="1"/>
  <variable name="x266_148" index="159917" value="1"/>
  <variable name="x267_588" index="160957" value="1"/>
  <variable name="x268_232" index="161201" value="1"/>
  <variable name="x269_553" index="162122" value="1"/>
  <variable name="x270_180" index="162349" value="1"/>
  <variable name="x271_348" index="163117" value="1"/>
  <variable name="x272_423" index="163792" value="1"/>
  <variable name="x273_142" index="164111" value="1"/>
  <variable name="x274_137" index="164706" value="1"/>
  <variable name="x275_284" index="165453" value="1"/>
  <variable name="x276_460" index="166229" value="1"/>
  <variable name="x277_64" index="166433" value="1"/>
  <variable name="x278_594" index="167563" value="1"/>
  <variable name="x279_321" index="167890" value="1"/>
  <variable name="x280_92" index="168261" value="1"/>
  <variable name="x281_491" index="169260" value="1"/>
  <variable name="x282_458" index="169827" value="1"/>
  <variable name="x283_549" index="170518" value="1"/>
  <variable name="x284_164" index="170733" value="1"/>
  <variable name="x285_503" index="171672" value="1"/>
  <variable name="x286_51" index="171820" value="1"/>
  <variable name="x287_107" index="172476" value="1"/>
  <variable name="x288_299" index="173268" value="1"/>
  <variable name="x289_257" index="173826" value="1"/>
  <variable name="x290_89" index="174258" value="1"/>
  <variable name="x291_556" index="175325" value="1"/>
  <variable name="x292_474" index="175843" value="1"/>
  <variable name="x293_183" index="176152" value="1"/>
  <variable name="x294_454" index="177023" value="1"/>
  <variable name="x295_506" index="177675" value="1"/>
  <variable name="x296_574" index="178343" value="1"/>
  <variable name="x297_514" index="178883" value="1"/>
  <variable name="x298_223" index="179192" value="1"/>
  <variable name="x299_159" index="179728" value="1"/>
  <variable name="x300_238" index="180407" value="1"/>
  <variable name="x301_272" index="181041" value="1"/>
  <variable name="x302_557" index="181926" value="1"/>
  <variable name="x303_489" index="182458" value="1"/>
  <variable name="x304_37" index="182606" value="1"/>
  <variable name="x305_593" index="183762" value="1"/>
  <variable name="x306_505" index="184274" value="1"/>
  <variable name="x307_122" index="184491" value="1"/>
  <variable name="x308_35" index="185004" value="1"/>
  <variable name="x309_39" index="185608" value="1"/>
  <variable name="x310_546" index="186715" value="1"/>
  <variable name="x311_313" index="187082" value="1"/>
  <variable name="x312_585" index="187954" value="1"/>
  <variable name="x313_32" index="188001" value="1"/>
  <variable name="x314_467" index="189036" value="1"/>
  <variable name="x315_260" index="189429" value="1"/>
  <variable name="x316_559" index="190328" value="1"/>
  <variable name="x317_115" index="190484" value="1"/>
  <variable name="x318_449" index="191418" value="1"/>
  <variable name="x319_365" index="191934" value="1"/>
  <variable name="x320_462" index="192631" value="1"/>
  <variable name="x321_511" index="193280" value="1"/>
  <variable name="x322_529" index="193898" value="1"/>
  <variable name="x323_494" index="194463" value="1"/>
  <variable name="x324_371" index="194940" value="1"/>
  <variable name="x325_596" index="195765" value="1"/>
  <variable name="x326_221" index="195990" value="1"/>
  <variable name="x327_177" index="196546" value="1"/>
  <variable name="x328_77" index="197046" value="1"/>
  <variable name="x329_519" index="198088" value="1"/>
  <variable name="x330_520" index="198689" value="1"/>
  <variable name="x331_437" index="199206" value="1"/>
  <variable name="x332_510" index="199879" value="1"/>
  <variable name="x333_385" index="200354" value="1"/>
  <variable name="x334_353" index="200922" value="1"/>
  <variable name="x335_428" index="201597" value="1"/>
  <variable name="x336_499" index="202268" value="1"/>
  <variable name="x337_235" index="202604" value="1"/>
  <variable name="x338_7" index="202976" value="1"/>
  <variable name="x339_521" index="204090" value="1"/>
  <variable name="x340_126" index="204295" value="1"/>
  <variable name="x341_253" index="205022" value="1"/>
  <variable name="x342_153" index="205522" value="1"/>
  <variable name="x343_40" index="206009" value="1"/>
  <variable name="x344_381" index="206950" value="1"/>
  <variable name="x345_243" index="207412" value="1"/>
  <variable name="x346_466" index="208235" value="1"/>
  <variable name="x347_220" index="208589" value="1"/>
  <variable name="x348_17" index="208986" value="1"/>
  <variable name="x349_23" index="209592" value="1"/>
  <variable name="x350_286" index="210455" value="1"/>
  <variable name="x351_581" index="211350" value="1"/>
  <variable name="x352_399" index="211768" value="1"/>
  <variable name="x353_189" index="212158" value="1"/>
  <variable name="x354_206" index="212775" value="1"/>
  <variable name="x355_320" index="213489" value="1"/>
  <variable name="x356_69" index="213838" value="1"/>
  <variable name="x357_340" index="214709" value="1"/>
  <variable name="x358_59" index="215028" value="1"/>
  <variable name="x359_63" index="215632" value="1"/>
  <variable name="x360_388" index="216557" value="1"/>
  <variable name="x361_8" index="216777" value="1"/>
  <variable name="x362_18" index="217387" value="1"/>
  <variable name="x363_74" index="218043" value="1"/>
  <variable name="x364_358" index="218927" value="1"/>
  <variable name="x365_488" index="219657" value="1"/>
  <variable name="x366_580" index="220349" value="1"/>
  <variable name="x367_413" index="220782" value="1"/>
  <variable name="x368_422" index="221391" value="1"/>
  <variable name="x369_451" index="222020" value="1"/>
  <variable name="x370_267" index="222436" value="1"/>
  <variable name="x371_79" index="222848" value="1"/>
  <variable name="x372_114" index="223483" value="1"/>
  <variable name="x373_108" index="224077" value="1"/>
  <variable name="x374_127" index="224696" value="1"/>
  <variable name="x375_595" index="225764" value="1"/>
  <variable name="x376_504" index="226273" value="1"/>
  <variable name="x377_598" index="226967" value="1"/>
  <variable name="x378_212" index="227181" value="1"/>
  <variable name="x379_2" index="227571" value="1"/>
  <variable name="x380_84" index="228253" value="1"/>
  <variable name="x381_533" index="229302" value="1"/>
  <variable name="x382_350" index="229719" value="1"/>
  <variable name="x383_110" index="230079" value="1"/>
  <variable name="x384_140" index="230709" value="1"/>
  <variable name="x385_408" index="231577" value="1"/>
  <variable name="x386_448" index="232217" value="1"/>
  <variable name="x387_523" index="232892" value="1"/>
  <variable name="x388_149" index="233118" value="1"/>
  <variable name="x389_485" index="234054" value="1"/>
  <variable name="x390_573" index="234742" value="1"/>
  <variable name="x391_289" index="235058" value="1"/>
  <variable name="x392_265" index="235634" value="1"/>
  <variable name="x393_155" index="236124" value="1"/>
  <variable name="x394_589" index="237158" value="1"/>
  <variable name="x395_327" index="237496" value="1"/>
  <variable name="x396_515" index="238284" value="1"/>
  <variable name="x397_105" index="238474" value="1"/>
  <variable name="x398_486" index="239455" value="1"/>
  <variable name="x399_532" index="240101" value="1"/>
  <variable name="x400_401" index="240570" value="1"/>
  <variable name="x401_201" index="240970" value="1"/>
  <variable name="x402_86" index="241455" value="1"/>
  <variable name="x403_233" index="242202" value="1"/>
  <variable name="x404_157" index="242726" value="1"/>
  <variable name="x405_343" index="243512" value="1"/>
  <variable name="x406_184" index="243953" value="1"/>
  <variable name="x407_254" index="244623" value="1"/>
  <variable name="x408_123" index="245092" value="1"/>
  <variable name="x409_552" index="246121" value="1"/>
  <variable name="x410_91" index="246260" value="1"/>
  <variable name="x411_403" index="247172" value="1"/>
  <variable name="x412_490" index="247859" value="1"/>
  <variable name="x413_146" index="248115" value="1"/>
  <variable name="x414_56" index="248625" value="1"/>
  <variable name="x415_219" index="249388" value="1"/>
  <variable name="x416_187" index="249956" value="1"/>
  <variable name="x417_60" index="250429" value="1"/>
  <variable name="x418_65" index="251034" value="1"/>
  <variable name="x419_352" index="251921" value="1"/>
  <variable name="x420_479" index="252648" value="1"/>
  <variable name="x421_575" index="253344" value="1"/>
  <variable name="x422_300" index="253669" value="1"/>
  <variable name="x423_380" index="254349" value="1"/>
  <variable name="x424_447" index="255016" value="1"/>
  <variable name="x425_181" index="255350" value="1"/>
  <variable name="x426_200" index="255969" value="1"/>
  <variable name="x427_351" index="256720" value="1"/>
  <variable name="x428_540" index="257509" value="1"/>
  <variable name="x429_492" index="258061" value="1"/>
  <variable name="x430_0" index="258169" value="1"/>
  <variable name="x431_197" index="258966" value="1"/>
  <variable name="x432_368" index="259737" value="1"/>
  <variable name="x433_102" index="260071" value="1"/>
  <variable name="x434_216" index="260785" value="1"/>
  <variable name="x435_21" index="261190" value="1"/>
  <variable name="x436_543" index="262312" value="1"/>
  <variable name="x437_525" index="262894" value="1"/>
  <variable name="x438_475" index="263444" value="1"/>
  <variable name="x439_302" index="263871" value="1"/>
  <variable name="x440_328" index="264497" value="1"/>
  <variable name="x441_50" index="264819" value="1"/>
  <variable name="x442_95" index="265464" value="1"/>
  <variable name="x443_121" index="266090" value="1"/>
  <variable name="x444_416" index="266985" value="1"/>
  <variable name="x445_175" index="267344" value="1"/>
  <variable name="x446_237" index="268006" value="1"/>
  <variable name="x447_234" index="268603" value="1"/>
  <variable name="x448_539" index="269508" value="1"/>
  <variable name="x449_572" index="270141" value="1"/>
  <variable name="x450_509" index="270678" value="1"/>
  <variable name="x451_22" index="270791" value="1"/>
  <variable name="x452_134" index="271503" value="1"/>
  <variable name="x453_409" index="272378" value="1"/>
  <variable name="x454_482" index="273051" value="1"/>
  <variable name="x455_342" index="273511" value="1"/>
  <variable name="x456_195" index="273964" value="1"/>
  <variable name="x457_104" index="274473" value="1"/>
  <variable name="x458_208" index="275177" value="1"/>
  <variable name="x459_433" index="276002" value="1"/>
  <variable name="x460_555" index="276724" value="1"/>
  <variable name="x461_378" index="277147" value="1"/>
  <variable name="x462_584" index="277953" value="1"/>
  <variable name="x463_554" index="278523" value="1"/>
  <variable name="x464_311" index="278880" value="1"/>
  <variable name="x465_138" index="279307" value="1"/>
  <variable name="x466_446" index="280215" value="1"/>
  <variable name="x467_379" index="280748" value="1"/>
  <variable name="x468_469" index="281438" value="1"/>
  <variable name="x469_579" index="282148" value="1"/>
  <variable name="x470_406" index="282575" value="1"/>
  <variable name="x471_38" index="282807" value="1"/>
  <variable name="x472_338" index="283707" value="1"/>
  <variable name="x473_124" index="284093" value="1"/>
  <variable name="x474_531" index="285100" value="1"/>
  <variable name="x475_369" index="285538" value="1"/>
  <variable name="x476_322" index="286091" value="1"/>
  <variable name="x477_31" index="286400" value="1"/>
  <variable name="x478_325" index="287294" value="1"/>
  <variable name="x479_545" index="288114" value="1"/>
  <variable name="x480_393" index="288562" value="1"/>
  <variable name="x481_470" index="289239" value="1"/>
  <variable name="x482_191" index="289560" value="1"/>
  <variable name="x483_493" index="290462" value="1"/>
  <variable name="x484_541" index="291110" value="1"/>
  <variable name="x485_15" index="291184" value="1"/>
  <variable name="x486_293" index="292062" value="1"/>
  <variable name="x487_426" index="292795" value="1"/>
  <variable name="x488_58" index="293027" value="1"/>
  <variable name="x489_290" index="293859" value="1"/>
  <variable name="x490_565" index="294734" value="1"/>
  <variable name="x491_211" index="294980" value="1"/>
  <variable name="x492_118" index="295487" value="1"/>
  <variable name="x493_507" index="296476" value="1"/>
  <variable name="x494_439" index="297008" value="1"/>
  <variable name="x495_224" index="297393" value="1"/>
  <variable name="x496_54" index="297823" value="1"/>
  <variable name="x497_52" index="298421" value="1"/>
  <variable name="x498_420" index="299389" value="1"/>
  <variable name="x499_96" index="299665" value="1"/>
  <variable name="x500_400" index="300569" value="1"/>
  <variable name="x501_344" index="301113" value="1"/>
  <variable name="x502_312" index="301681" value="1"/>
  <variable name="x503_431" index="302400" value="1"/>
  <variable name="x504_103" index="302672" value="1"/>
  <variable name="x505_318" index="303487" value="1"/>
  <variable name="x506_438" index="304207" value="1"/>
  <variable name="x507_502" index="304871" value="1"/>
  <variable name="x508_547" index="305516" value="1"/>
  <variable name="x509_512" index="306081" value="1"/>
  <variable name="x510_587" index="306756" value="1"/>
  <variable name="x511_128" index="306897" value="1"/>
  <variable name="x512_271" index="307640" value="1"/>
  <variable name="x513_441" index="308410" value="1"/>
  <variable name="x514_478" index="309047" value="1"/>
  <variable name="x515_360" index="309529" value="1"/>
  <variable name="x516_29" index="309798" value="1"/>
  <variable name="x517_44" index="310413" value="1"/>
  <variable name="x518_139" index="311108" value="1"/>
  <variable name="x519_376" index="311945" value="1"/>
  <variable name="x520_522" index="312691" value="1"/>
  <variable name="x521_45" index="312814" value="1"/>
  <variable name="x522_535" index="313904" value="1"/>
  <variable name="x523_41" index="314010" value="1"/>
  <variable name="x524_55" index="314624" value="1"/>
  <variable name="x525_591" index="315760" value="1"/>
  <variable name="x526_34" index="315803" value="1"/>
  <variable name="x527_419" index="316788" value="1"/>
  <variable name="x528_319" index="317288" value="1"/>
  <variable name="x529_203" index="317772" value="1"/>
  <variable name="x530_116" index="318285" value="1"/>
  <variable name="x531_345" index="319114" value="1"/>
  <variable name="x532_450" index="319819" value="1"/>
  <variable name="x533_278" index="320247" value="1"/>
  <variable name="x534_133" index="320702" value="1"/>
  <variable name="x535_405" index="321574" value="1"/>
  <variable name="x536_214" index="321983" value="1"/>
  <variable name="x537_508" index="322877" value="1"/>
  <variable name="x538_304" index="323273" value="1"/>
  <variable name="x539_332" index="323901" value="1"/>
  <variable name="x540_472" index="324641" value="1"/>
  <variable name="x541_199" index="324968" value="1"/>
  <variable name="x542_387" index="325756" value="1"/>
  <variable name="x543_245" index="326214" value="1"/>
  <variable name="x544_534" index="327103" value="1"/>
  <variable name="x545_287" index="327456" value="1"/>
  <variable name="x546_563" index="328332" value="1"/>
  <variable name="x547_94" index="328463" value="1"/>
  <variable name="x548_341" index="329310" value="1"/>
  <variable name="x549_373" index="329942" value="1"/>
  <variable name="x550_455" index="330624" value="1"/>
  <variable name="x551_48" index="330817" value="1"/>
  <variable name="x552_459" index="331828" value="1"/>
  <variable name="x553_562" index="332531" value="1"/>
  <variable name="x554_132" index="332701" value="1"/>
  <variable name="x555_561" index="333730" value="1"/>
  <variable name="x556_468" index="334237" value="1"/>
  <variable name="x557_568" index="334937" value="1"/>
  <variable name="x558_1" index="334970" value="1"/>
  <variable name="x559_560" index="336129" value="1"/>
  <variable name="x560_258" index="336427" value="1"/>
  <variable name="x561_471" index="337240" value="1"/>
  <variable name="x562_106" index="337475" value="1"/>
  <variable name="x563_390" index="338359" value="1"/>
  <variable name="x564_125" index="338694" value="1"/>
  <variable name="x565_10" index="339179" value="1"/>
  <variable name="x566_530" index="340299" value="1"/>
  <variable name="x567_310" index="340679" value="1"/>
  <variable name="x568_516" index="341485" value="1"/>
  <variable name="x569_6" index="341575" value="1"/>
  <variable name="x570_150" index="342319" value="1"/>
  <variable name="x571_377" index="343146" value="1"/>
  <variable name="x572_452" index="343821" value="1"/>
  <variable name="x573_145" index="344114" value="1"/>
  <variable name="x574_329" index="344898" value="1"/>
  <variable name="x575_599" index="345768" value="1"/>
  <variable name="x576_190" index="345959" value="1"/>
  <variable name="x577_255" index="346624" value="1"/>
  <variable name="x578_147" index="347116" value="1"/>
  <variable name="x579_117" index="347686" value="1"/>
  <variable name="x580_131" index="348300" value="1"/>
  <variable name="x581_558" index="349327" value="1"/>
  <variable name="x582_24" index="349393" value="1"/>
  <variable name="x583_215" index="350184" value="1"/>
  <variable name="x584_213" index="350782" value="1"/>
  <variable name="x585_359" index="351528" value="1"/>
  <variable name="x586_280" index="352049" value="1"/>
  <variable name="x587_168" index="352537" value="1"/>
  <variable name="x588_537" index="353506" value="1"/>
  <variable name="x589_158" index="353727" value="1"/>
  <variable name="x590_244" index="354413" value="1"/>
  <variable name="x591_277" index="355046" value="1"/>
  <variable name="x592_314" index="355683" value="1"/>
  <variable name="x593_363" index="356332" value="1"/>
  <variable name="x594_171" index="356740" value="1"/>
  <variable name="x595_407" index="357576" value="1"/>
  <variable name="x596_156" index="357925" value="1"/>
  <variable name="x597_316" index="358685" value="1"/>
  <variable name="x598_440" index="359409" value="1"/>
  <variable name="x599_303" index="359872" value="1"/>
  <variable name="k4" index="360173" value="1"/>
  <variable name="k5" index="360174" value="1"/>
  <variable name="k6" index="360175" value="1"/>
  <variable name="k8" index="360177" value="1"/>
  <variable name="k9" index="360178" value="1"/>
  <variable name="k10" index="360179" value="1"/>
  <variable name="k12" index="360181" value="1"/>
  <variable name="u1" index="360183" value="1"/>
  <variable name="u6" index="360188" value="1"/>
  <variable name="u10" index="360192" value="1"/>
 </variables>
</CPLEXSolution>
